projected/problems_b25_r0_d7_m100_s666/_DIMACS/b25_d7_r0_s666_006.cnf
p cnf 213 314 25
c p show 1 2 3 4 5 6 7 8 9 10 11 12 13 14 15 16 17 18 19 20 21 22 23 24 25
-26 1 0
-26 22 0
-27 24 -3 0
-28 27 0
-28 26 0
-29 12 -11 0
-30 11 5 0
-31 30 0
-31 29 0
-32 31 28 0
-33 -5 0
-33 -1 0
-34 2 0
-34 10 0
-35 34 0
-35 33 0
-36 -9 8 0
-37 17 8 0
-38 37 36 0
-39 38 35 0
-40 9 0
-40 -8 0
-41 -17 0
-41 -8 0
-42 41 0
-42 40 0
-43 5 1 0
-44 -2 -10 0
-45 44 43 0
-46 45 42 0
-47 46 0
-47 39 0
-48 47 0
-48 32 0
-49 -25 0
-49 7 0
-50 -18 -15 0
-51 50 0
-51 49 0
-52 23 0
-52 11 0
-53 -11 0
-53 -23 0
-54 53 52 0
-55 19 0
-56 55 54 0
-57 56 0
-57 51 0
-58 20 0
-58 22 0
-59 12 21 0
-60 59 0
-60 58 0
-61 13 23 0
-62 -23 -13 0
-63 62 0
-63 61 0
-64 22 0
-64 9 0
-65 64 63 0
-66 65 0
-66 60 0
-67 66 0
-67 57 0
-68 -20 -22 0
-69 -12 0
-69 -21 0
-70 69 68 0
-71 -13 0
-71 -23 0
-72 23 0
-72 13 0
-73 72 71 0
-74 -22 -9 0
-75 74 0
-75 73 0
-76 75 70 0
-77 25 -7 0
-78 18 0
-78 15 0
-79 78 77 0
-80 -23 -11 0
-81 11 23 0
-82 81 0
-82 80 0
-83 -19 0
-84 83 0
-84 82 0
-85 84 79 0
-86 85 0
-86 76 0
-87 86 67 0
-88 87 0
-88 48 0
-89 7 -2 0
-90 2 -7 0
-91 90 0
-91 89 0
-92 -25 -2 0
-93 92 91 0
-94 9 0
-95 19 16 0
-96 95 0
-96 94 0
-97 96 93 0
-98 16 0
-98 11 0
-99 -11 0
-99 -16 0
-100 99 98 0
-101 -3 -9 0
-102 101 0
-102 100 0
-103 -3 2 0
-104 17 0
-104 16 0
-105 104 103 0
-106 105 102 0
-107 106 0
-107 97 0
-108 21 -9 0
-109 13 -4 0
-110 109 108 0
-111 -13 0
-111 4 0
-112 -21 0
-112 9 0
-113 112 111 0
-114 113 0
-114 110 0
-115 -4 -8 0
-116 4 -3 0
-117 116 0
-117 115 0
-118 117 114 0
-119 -2 -9 0
-120 9 2 0
-121 120 0
-121 119 0
-122 -8 0
-122 11 0
-123 122 121 0
-124 25 0
-124 19 0
-125 2 -13 0
-126 125 124 0
-127 126 123 0
-128 127 0
-128 118 0
-129 128 107 0
-130 129 88 0
-131 5 0
-131 19 0
-132 18 5 0
-133 132 0
-133 131 0
-134 9 21 0
-135 11 20 0
-136 135 134 0
-137 136 0
-137 133 0
-138 -17 0
-138 5 0
-139 7 -21 0
-140 139 0
-140 138 0
-141 -7 0
-141 21 0
-142 17 -5 0
-143 142 0
-143 141 0
-144 143 140 0
-145 -11 -21 0
-146 21 0
-146 7 0
-147 146 145 0
-148 147 0
-148 144 0
-149 148 137 0
-150 -1 10 0
-151 -15 -17 0
-152 151 0
-152 150 0
-153 15 0
-153 17 0
-154 1 0
-154 -10 0
-155 154 0
-155 153 0
-156 155 152 0
-157 -18 12 0
-158 -13 0
-158 -24 0
-159 158 157 0
-160 159 156 0
-161 -10 4 0
-162 -4 10 0
-163 162 0
-163 161 0
-164 -13 0
-164 9 0
-165 -9 0
-165 13 0
-166 165 164 0
-167 166 0
-167 163 0
-168 14 0
-168 -23 0
-169 23 0
-169 -14 0
-170 169 168 0
-171 11 -8 0
-172 8 -11 0
-173 172 0
-173 171 0
-174 173 170 0
-175 174 0
-175 167 0
-176 175 0
-176 160 0
-177 176 0
-177 149 0
-178 8 -19 0
-179 1 10 0
-180 179 178 0
-181 -4 0
-181 -11 0
-182 6 0
-182 -21 0
-183 182 181 0
-184 183 180 0
-185 14 0
-185 21 0
-186 12 -10 0
-187 186 185 0
-188 -12 0
-188 10 0
-189 -14 -21 0
-190 189 188 0
-191 190 0
-191 187 0
-192 -11 0
-192 -21 0
-193 8 -18 0
-194 193 192 0
-195 194 191 0
-196 195 0
-196 184 0
-197 3 13 0
-198 4 25 0
-199 198 0
-199 197 0
-200 -3 -17 0
-201 24 -18 0
-202 201 200 0
-203 202 0
-203 199 0
-204 -14 20 0
-205 10 0
-205 2 0
-206 205 204 0
-207 -15 -9 0
-208 -23 0
-208 -9 0
-209 208 0
-209 207 0
-210 209 0
-210 206 0
-211 210 0
-211 203 0
-212 211 196 0
-213 212 177 0
213 130 0
-36 -40 0
-37 -41 0
-38 -42 0
-42 -38 0
-43 -33 0
-33 -43 0
-34 -44 0
-35 -45 0
-68 -58 0
-58 -68 0
-59 -69 0
-60 -70 0
-63 -73 0
-73 -63 0
-74 -64 0
-75 -65 0
-65 -75 0
-66 -76 0
-49 -77 0
-77 -49 0
-78 -50 0
-79 -51 0
-51 -79 0
-82 -54 0
-83 -55 0
-84 -56 0
-56 -84 0
-57 -85 0
-85 -57 0
-111 -109 0
-112 -108 0
-108 -112 0
-141 -139 0
-139 -141 0
-142 -138 0
-153 -151 0
-151 -153 0
-154 -150 0
-188 -186 0
-189 -185 0
-185 -189 0
